Q:[
30000	50000	100000
]

q:
[
0
3000
3000
3000
3400
3600
3600
3600
3600
3600
3600
4000
4000
4000
4000
4000
]

L:
[
30000	50000	100000
30000	50000	100000
30000	50000	100000
30000	50000	100000
30000	50000	100000
30000	50000	60000
30000	25000	20000
30000	37500	40000
30000	25000	20000
30000	25000	20000
30000	50000	100000
30000	50000	100000
30000	50000	100000
30000	50000	100000
30000	50000	100000
]

coord:
[
0	0
79	75
71	9
6	38
72	13
47	97
58	17
85	13
91	73
0	66
13	59
85	32
90	29
41	23
2	22
32	3]



c:[1 1.3 2]

r:[2	3	5
10	10	10
5	7	10
10	10	10
10	10	10
5	7	10
2	3	5
2	3	5
1	2	5
2	3	5
3	5	7
10	10	10
5	7	10
10	10	10
10	10	10
]

